NAME 
ROWS
 N  OBJ
 L  R0      
 L  R1      
 E  R2      
 E  R3      
 E  R4      
 E  R5      
 E  R6      
 E  R7      
 E  R8      
 E  R9      
 E  R10     
 E  R11     
 E  R12     
 E  R13     
 E  R14     
 E  R15     
 E  R16     
 E  R17     
 E  R18     
 E  R19     
 E  R20     
 E  R21     
COLUMNS
    MARKER    'MARKER'                 'INTORG'
    I0(8)     OBJ       87
    I0(8)     R0        44
    I0(8)     R1        -184
    I0(8)     R2        5
    I0(8)     R3        6
    I0(8)     R4        2
    I0(8)     R6        1
    I0(8)     R9        8
    I0(8)     R21       1
    I1(8)     OBJ       79
    I1(8)     R0        3
    I1(8)     R1        3
    I1(8)     R4        6
    I1(8)     R5        4
    I1(8)     R7        1
    I1(8)     R8        10
    I1(8)     R9        15
    I1(8)     R21       1
    I2(9)     OBJ       143
    I2(9)     R0        -36
    I2(9)     R1        93
    I2(9)     R2        1
    I2(9)     R3        12
    I2(9)     R4        9
    I2(9)     R5        12
    I2(9)     R6        17
    I2(9)     R8        10
    I2(9)     R21       1
    I3(11)    OBJ       -88
    I3(11)    R0        12
    I3(11)    R1        52
    I3(11)    R2        6
    I3(11)    R3        18
    I3(11)    R4        18
    I3(11)    R5        8
    I3(11)    R6        15
    I3(11)    R7        12
    I3(11)    R8        9
    I3(11)    R9        8
    I3(11)    R21       1
    I4(11)    OBJ       -80
    I4(11)    R0        -146
    I4(11)    R1        171
    I4(11)    R2        5
    I4(11)    R3        9
    I4(11)    R4        14
    I4(11)    R5        14
    I4(11)    R6        12
    I4(11)    R7        7
    I4(11)    R8        4
    I4(11)    R9        18
    I4(11)    R21       1
    I5(11)    OBJ       84
    I5(11)    R0        -137
    I5(11)    R1        -195
    I5(11)    R2        6
    I5(11)    R3        6
    I5(11)    R4        4
    I5(11)    R5        14
    I5(11)    R6        7
    I5(11)    R7        14
    I5(11)    R8        11
    I5(11)    R9        18
    I5(11)    R21       1
    I6(9)     OBJ       -128
    I6(9)     R0        -144
    I6(9)     R1        38
    I6(9)     R3        14
    I6(9)     R4        12
    I6(9)     R5        9
    I6(9)     R7        13
    I6(9)     R8        15
    I6(9)     R9        1
    I6(9)     R21       1
    I7(9)     OBJ       78
    I7(9)     R0        142
    I7(9)     R1        35
    I7(9)     R2        15
    I7(9)     R3        14
    I7(9)     R4        15
    I7(9)     R6        19
    I7(9)     R8        1
    I7(9)     R9        4
    I7(9)     R21       1
    MARKER    'MARKER'                 'INTEND'
    C8(17)    OBJ       5
    C8(17)    R0        -5
    C8(17)    R1        -5
    C8(17)    R2        12
    C8(17)    R3        1
    C8(17)    R4        10
    C8(17)    R5        18
    C8(17)    R6        18
    C8(17)    R7        16
    C8(17)    R9        10
    C8(17)    R10       4
    C8(17)    R12       9
    C8(17)    R14       4
    C8(17)    R15       17
    C8(17)    R16       11
    C8(17)    R17       4
    C8(17)    R18       10
    C8(17)    R19       7
    C9(19)    OBJ       6
    C9(19)    R0        -2
    C9(19)    R1        -4
    C9(19)    R2        11
    C9(19)    R3        -1
    C9(19)    R4        3
    C9(19)    R5        4
    C9(19)    R7        8
    C9(19)    R8        12
    C9(19)    R9        4
    C9(19)    R11       8
    C9(19)    R12       15
    C9(19)    R13       17
    C9(19)    R14       14
    C9(19)    R15       16
    C9(19)    R16       16
    C9(19)    R17       9
    C9(19)    R18       9
    C9(19)    R19       9
    C9(19)    R20       9
    C10(16)   R0        6
    C10(16)   R1        1
    C10(16)   R2        16
    C10(16)   R3        18
    C10(16)   R6        8
    C10(16)   R9        10
    C10(16)   R10       18
    C10(16)   R11       -1
    C10(16)   R12       10
    C10(16)   R13       -1
    C10(16)   R14       16
    C10(16)   R15       14
    C10(16)   R17       1
    C10(16)   R18       4
    C10(16)   R19       7
    C10(16)   R20       8
    C11(18)   R0        6
    C11(18)   R1        -3
    C11(18)   R2        -1
    C11(18)   R5        19
    C11(18)   R6        3
    C11(18)   R7        -1
    C11(18)   R8        15
    C11(18)   R9        7
    C11(18)   R10       3
    C11(18)   R11       9
    C11(18)   R12       9
    C11(18)   R13       6
    C11(18)   R14       7
    C11(18)   R15       -1
    C11(18)   R16       7
    C11(18)   R18       15
    C11(18)   R19       7
    C11(18)   R20       12
    C12(17)   OBJ       2
    C12(17)   R0        -8
    C12(17)   R1        -3
    C12(17)   R2        9
    C12(17)   R3        -1
    C12(17)   R4        1
    C12(17)   R5        5
    C12(17)   R6        12
    C12(17)   R7        19
    C12(17)   R9        19
    C12(17)   R11       3
    C12(17)   R12       13
    C12(17)   R13       18
    C12(17)   R14       1
    C12(17)   R15       5
    C12(17)   R17       16
    C12(17)   R18       13
    C12(17)   R20       10
    C13(18)   OBJ       4
    C13(18)   R0        1
    C13(18)   R1        5
    C13(18)   R4        15
    C13(18)   R5        1
    C13(18)   R6        12
    C13(18)   R7        4
    C13(18)   R8        5
    C13(18)   R9        6
    C13(18)   R10       3
    C13(18)   R11       19
    C13(18)   R12       18
    C13(18)   R13       17
    C13(18)   R15       14
    C13(18)   R16       12
    C13(18)   R17       1
    C13(18)   R18       19
    C13(18)   R19       2
    C13(18)   R20       12
    C14(13)   OBJ       6
    C14(13)   R0        7
    C14(13)   R1        7
    C14(13)   R2        17
    C14(13)   R4        7
    C14(13)   R5        8
    C14(13)   R6        17
    C14(13)   R7        5
    C14(13)   R9        11
    C14(13)   R10       7
    C14(13)   R11       17
    C14(13)   R12       16
    C14(13)   R13       15
    C14(13)   R20       10
    C15(17)   OBJ       -7
    C15(17)   R0        8
    C15(17)   R1        3
    C15(17)   R4        -1
    C15(17)   R5        9
    C15(17)   R7        18
    C15(17)   R8        12
    C15(17)   R9        10
    C15(17)   R10       13
    C15(17)   R11       18
    C15(17)   R12       10
    C15(17)   R13       11
    C15(17)   R14       1
    C15(17)   R15       8
    C15(17)   R16       11
    C15(17)   R18       14
    C15(17)   R19       14
    C15(17)   R20       13
    C16(16)   OBJ       -10
    C16(16)   R0        -3
    C16(16)   R1        7
    C16(16)   R2        5
    C16(16)   R4        9
    C16(16)   R5        18
    C16(16)   R6        9
    C16(16)   R7        19
    C16(16)   R9        15
    C16(16)   R11       4
    C16(16)   R12       4
    C16(16)   R13       12
    C16(16)   R15       15
    C16(16)   R16       -1
    C16(16)   R18       8
    C16(16)   R19       15
    C16(16)   R20       15
    C17(19)   OBJ       9
    C17(19)   R0        -10
    C17(19)   R1        -9
    C17(19)   R2        19
    C17(19)   R3        17
    C17(19)   R4        15
    C17(19)   R5        15
    C17(19)   R6        7
    C17(19)   R7        3
    C17(19)   R8        13
    C17(19)   R9        10
    C17(19)   R10       1
    C17(19)   R12       14
    C17(19)   R14       16
    C17(19)   R15       17
    C17(19)   R16       12
    C17(19)   R17       16
    C17(19)   R18       1
    C17(19)   R19       8
    C17(19)   R20       19
    C18(15)   OBJ       -8
    C18(15)   R0        3
    C18(15)   R1        4
    C18(15)   R2        3
    C18(15)   R3        1
    C18(15)   R4        2
    C18(15)   R5        -1
    C18(15)   R6        5
    C18(15)   R7        19
    C18(15)   R9        9
    C18(15)   R10       6
    C18(15)   R11       9
    C18(15)   R13       11
    C18(15)   R14       1
    C18(15)   R16       12
    C18(15)   R17       7
    C19(19)   OBJ       9
    C19(19)   R0        9
    C19(19)   R1        -3
    C19(19)   R2        9
    C19(19)   R3        2
    C19(19)   R4        5
    C19(19)   R5        15
    C19(19)   R6        6
    C19(19)   R7        12
    C19(19)   R8        4
    C19(19)   R9        14
    C19(19)   R10       15
    C19(19)   R11       2
    C19(19)   R12       13
    C19(19)   R13       12
    C19(19)   R14       14
    C19(19)   R15       2
    C19(19)   R16       7
    C19(19)   R17       16
    C19(19)   R20       12
    C20(1)    R2        1
    C21(1)    R3        1
    C22(1)    R4        1
    C23(1)    R5        1
    C24(1)    R6        1
    C25(1)    R7        1
    C26(1)    R8        1
    C27(1)    R9        1
    C28(1)    R10       1
    C29(1)    R11       1
    C30(1)    R12       1
    C31(1)    R13       1
    C32(1)    R14       1
    C33(1)    R15       1
    C34(1)    R16       1
    C35(1)    R17       1
    C36(1)    R18       1
    C37(1)    R19       1
    C38(1)    R20       1
    C39(1)    R21       1
RHS
    RHS1      R0        -2.9227397260274029e+02
    RHS1      R1        9.4260273972602988e+01
    RHS1      R2        82
    RHS1      R3        72
    RHS1      R4        50
    RHS1      R5        83
    RHS1      R6        77
    RHS1      R7        81
    RHS1      R8        96
    RHS1      R9        61
    RHS1      R10       63
    RHS1      R11       78
    RHS1      R12       80
    RHS1      R13       86
    RHS1      R14       75
    RHS1      R15       72
    RHS1      R16       84
    RHS1      R17       84
    RHS1      R18       61
    RHS1      R19       69
    RHS1      R20       81
    RHS1      R21       2
BOUNDS
 UP BND1      I0(8)     2
 UP BND1      I1(8)     2
 UP BND1      I2(9)     2
 UP BND1      I3(11)    2
 UP BND1      I4(11)    2
 UP BND1      I5(11)    2
 UP BND1      I6(9)     2
 UP BND1      I7(9)     2
ENDATA
